\ Model QCP
\ LP format - for model browsing. Use MPS format to capture full model detail.
Minimize
  z + y
Subject To
 Cut_0: z + [ ] >= 600
 Cut_1: z + [ 5.084745762711864 y ^2 ] >= 1291.525423728814
 Cut_2: z + [ ] >= 600
 Cut_3: z + [ ] >= 600
 Cut_4: z + [ ] >= 600
 Cut_5: z + [ ] >= 600
 Cut_6: z + [ ] >= 600
 Cut_7: z + [ ] >= 600
 Cut_8: z + [ ] >= 600
 Cut_9: z + [ ] >= 600
Bounds
 600 <= z <= 900
 8.774964387392123 <= y <= 11.6619037896906
End
